p cnf 20 5
-8 7 -10 12 -6 -4 9 -19 -13 1 16 -2 -15 -17 18 20 -11 0
-10 -12 -17 4 -16 13 -1 7 6 9 19 -2 -11 -8 -14 0
-10 -3 -13 -8 -5 9 0
-14 -4 -5 -17 8 1 -16 -10 -3 13 15 -20 18 6 -9 11 2 -12 19 0
-5 11 -14 16 -18 -19 -4 13 1 15 -6 -3 -7 12 -8 17 10 -9 -2 0